QBPP_HJ-_40_025_10_4
40 205 295
10 29 14 34 31 50 49 40 1 8 49 8 44 15 19 45 6 30 50 3 22 2 33 37 15 49 24 9 1 50 5 12 31 41 17 31 46 6 21 34
     0     0     0     0     0     0     0     0   -97     0     0     0    -3     0   -70    -8     0     0    -9   -16   -75     0     0     0     0    -6     0     0     0   -71     0     0     0     0     0     0     0     0     0    -3
     0     0   -29     0     0     0     0   -27     0   -97   -54     0     0     0   -59     0     0     0     0   -76     0     0   -20     0     0     0   -26     0   -37    -6     0     0   -50     0     0   -37     0     0   -20   -75
     0   -29     0   -68     0     0     0   -51   -39     0     0   -11     0     0     0     0     0     0     0   -32     0     0     0   -49     0     0   -65     0     0   -69     0     0   -69     0     0     0   -18   -47   -68     0
     0     0   -68     0     0   -46     0     0     0     0   -77     0     0     0   -20     0     0     0     0     0     0   -34     0     0     0     0     0   -47     0     0   -49     0     0     0     0     0   -50     0    -2     0
     0     0     0     0     0   -29     0     0     0     0     0   -88     0     0     0     0     0     0     0     0   -85     0   -45     0     0     0   -86     0     0     0   -24     0     0     0   -72   -22     0   -89     0     0
     0     0     0   -46   -29     0   -68     0     0     0   -59     0     0     0     0     0     0     0     0     0   -21     0     0   -59     0     0   -79     0     0   -96     0     0     0     0   -56     0   -35     0   -55     0
     0     0     0     0     0   -68     0   -54     0   -12   -66     0     0     0     0   -82     0     0     0     0   -94     0   -88     0   -91     0   -83     0   -67     0     0     0     0     0   -65     0     0     0     0     0
     0   -27   -51     0     0     0   -54     0    -2   -98     0   -95     0     0     0     0     0     0     0   -30     0     0     0     0     0     0     0   -85   -37     0   -81     0     0   -87     0    -9     0     0     0   -74
   -97     0   -39     0     0     0     0    -2     0     0   -67   -32   -32     0   -70     0     0     0     0     0    -5     0     0     0     0     0     0     0   -86     0     0   -52     0     0     0     0   -25     0     0   -24
     0   -97     0     0     0     0   -12   -98     0     0     0     0     0     0     0     0   -42     0     0     0     0     0   -81     0   -55    -1   -74     0     0   -20     0     0     0     0     0     0     0     0     0     0
     0   -54     0   -77     0   -59   -66     0   -67     0     0   -57   -94     0   -37     0     0     0   -17   -61     0     0     0     0     0     0     0     0     0     0     0     0     0     0     0     0     0     0     0     0
     0     0   -11     0   -88     0     0   -95   -32     0   -57     0   -54     0   -37     0   -74     0     0   -73     0   -96     0     0     0     0     0     0     0     0     0     0     0     0     0   -25   -78     0     0     0
    -3     0     0     0     0     0     0     0   -32     0   -94   -54     0     0   -33     0     0     0   -42     0   -55     0     0     0     0     0     0     0     0     0     0   -24     0     0   -49     0     0     0     0     0
     0     0     0     0     0     0     0     0     0     0     0     0     0     0     0   -33     0     0   -74     0   -37     0     0     0   -87     0     0     0   -13     0   -64     0     0     0     0     0   -14     0     0     0
   -70   -59     0   -20     0     0     0     0   -70     0   -37   -37   -33     0     0     0     0   -56   -71     0   -70   -69     0     0     0   -45     0     0     0     0     0   -70     0     0   -61     0     0     0   -47     0
    -8     0     0     0     0     0   -82     0     0     0     0     0     0   -33     0     0     0     0     0     0     0     0     0     0     0     0     0     0     0     0     0     0     0     0   -71     0     0   -67     0     0
     0     0     0     0     0     0     0     0     0   -42     0   -74     0     0     0     0     0     0     0   -94     0   -95     0    -9     0     0     0     0     0     0     0     0     0     0     0     0   -81   -42     0     0
     0     0     0     0     0     0     0     0     0     0     0     0     0     0   -56     0     0     0     0     0     0   -49   -69     0   -32     0     0     0   -95     0     0  -100     0     0     0     0     0     0     0     0
    -9     0     0     0     0     0     0     0     0     0   -17     0   -42   -74   -71     0     0     0     0   -71   -50     0     0     0     0     0   -99    -9     0     0     0     0     0   -29     0   -47     0     0   -67     0
   -16   -76   -32     0     0     0     0   -30     0     0   -61   -73     0     0     0     0   -94     0   -71     0   -81     0     0     0     0     0     0     0     0     0     0     0     0     0     0   -86     0     0   -92     0
   -75     0     0     0   -85   -21   -94     0    -5     0     0     0   -55   -37   -70     0     0     0   -50   -81     0    -1   -43     0     0     0     0     0     0     0    -9   -32     0     0   -57   -63     0     0     0   -78
     0     0     0   -34     0     0     0     0     0     0     0   -96     0     0   -69     0   -95   -49     0     0    -1     0     0   -76     0     0     0   -45     0     0     0     0     0     0     0   -98     0     0     0     0
     0   -20     0     0   -45     0   -88     0     0   -81     0     0     0     0     0     0     0   -69     0     0   -43     0     0     0     0   -42   -24     0     0     0   -14     0     0     0     0     0     0   -61     0     0
     0     0   -49     0     0   -59     0     0     0     0     0     0     0     0     0     0    -9     0     0     0     0   -76     0     0     0     0     0     0   -47   -65     0     0     0     0   -16     0     0     0     0     0
     0     0     0     0     0     0   -91     0     0   -55     0     0     0   -87     0     0     0   -32     0     0     0     0     0     0     0   -11     0     0   -28     0     0     0     0   -35     0     0     0   -53     0     0
    -6     0     0     0     0     0     0     0     0    -1     0     0     0     0   -45     0     0     0     0     0     0     0   -42     0   -11     0     0     0     0   -32     0     0    -4     0   -95     0     0     0     0     0
     0   -26   -65     0   -86   -79   -83     0     0   -74     0     0     0     0     0     0     0     0   -99     0     0     0   -24     0     0     0     0   -23   -70     0    -5     0     0     0   -24   -46     0     0   -85     0
     0     0     0   -47     0     0     0   -85     0     0     0     0     0     0     0     0     0     0    -9     0     0   -45     0     0     0     0   -23     0     0     0     0     0     0     0     0     0     0     0     0     0
     0   -37     0     0     0     0   -67   -37   -86     0     0     0     0   -13     0     0     0   -95     0     0     0     0     0   -47   -28     0   -70     0     0     0     0     0     0   -87   -23     0     0     0   -59     0
   -71    -6   -69     0     0   -96     0     0     0   -20     0     0     0     0     0     0     0     0     0     0     0     0     0   -65     0   -32     0     0     0     0     0     0     0     0     0     0     0     0     0   -97
     0     0     0   -49   -24     0     0   -81     0     0     0     0     0   -64     0     0     0     0     0     0    -9     0   -14     0     0     0    -5     0     0     0     0     0     0     0     0     0   -89   -94     0   -97
     0     0     0     0     0     0     0     0   -52     0     0     0   -24     0   -70     0     0  -100     0     0   -32     0     0     0     0     0     0     0     0     0     0     0     0     0     0     0     0     0    -6   -69
     0   -50   -69     0     0     0     0     0     0     0     0     0     0     0     0     0     0     0     0     0     0     0     0     0     0    -4     0     0     0     0     0     0     0     0     0  -100   -37     0     0   -68
     0     0     0     0     0     0     0   -87     0     0     0     0     0     0     0     0     0     0   -29     0     0     0     0     0   -35     0     0     0   -87     0     0     0     0     0     0     0     0     0     0   -43
     0     0     0     0   -72   -56   -65     0     0     0     0     0   -49     0   -61   -71     0     0     0     0   -57     0     0   -16     0   -95   -24     0   -23     0     0     0     0     0     0     0     0   -82   -68   -27
     0   -37     0     0   -22     0     0    -9     0     0     0   -25     0     0     0     0     0     0   -47   -86   -63   -98     0     0     0     0   -46     0     0     0     0     0  -100     0     0     0    -7     0     0   -82
     0     0   -18   -50     0   -35     0     0   -25     0     0   -78     0   -14     0     0   -81     0     0     0     0     0     0     0     0     0     0     0     0     0   -89     0   -37     0     0    -7     0     0   -53     0
     0     0   -47     0   -89     0     0     0     0     0     0     0     0     0     0   -67   -42     0     0     0     0     0   -61     0   -53     0     0     0     0     0   -94     0     0     0   -82     0     0     0     0     0
     0   -20   -68    -2     0   -55     0     0     0     0     0     0     0     0   -47     0     0     0   -67   -92     0     0     0     0     0     0   -85     0   -59     0     0    -6     0     0   -68     0   -53     0     0   -71
    -3   -75     0     0     0     0     0   -74   -24     0     0     0     0     0     0     0     0     0     0     0   -78     0     0     0     0     0     0     0     0   -97   -97   -69   -68   -43   -27   -82     0     0   -71     0
